WARNING: for repeatability, setting FPU to use double precision
============================[ Problem Statistics ]=============================
|                                                                             |
|  Number of variables:           100                                         |
|  Number of clauses:             449                                         |
|  Parse time:                   0.00 s                                       |
|  Eliminated clauses:           0.00 Mb                                      |
|  Simplification time:          0.00 s                                       |
|                                                                             |
============================[ Search Statistics ]==============================
| Conflicts |          ORIGINAL         |          LEARNT          | Progress |
|           |    Vars  Clauses Literals |    Limit  Clauses Lit/Cl |          |
===============================================================================
|       100 |      99      447     1351 |      163      100      7 |  0.010 % |
|       250 |      99      447     1351 |      180      165      7 |  0.010 % |
===============================================================================
restarts              : 3
conflicts             : 346            (83353 /sec)
decisions             : 437            (0.00 % random) (105276 /sec)
propagations          : 8172           (1968682 /sec)
conflict literals     : 2301           (17.64 % deleted)
Memory used           : 13.00 MB
CPU time              : 0.004151 s

SATISFIABLE
